<number of tasks>
50

<cycle time>
1000

<order strength>
0.197


<task times>
1 393
2 381
3 436
4 490
5 368
6 760
7 389
8 543
9 274
10 509
11 510
12 578
13 476
14 442
15 345
16 521
17 445
18 566
19 514
20 412
21 694
22 671
23 308
24 407
25 493
26 618
27 349
28 502
29 682
30 435
31 580
32 660
33 446
34 749
35 470
36 233
37 545
38 534
39 345
40 577
41 569
42 394
43 462
44 299
45 573
46 362
47 516
48 429
49 348
50 602

<precedence relations>
1,7
2,6
2,8
2,10
3,5
3,27
4,9
4,11
5,35
6,35
7,17
8,14
9,12
9,13
9,15
9,16
9,19
10,18
12,35
13,35
14,23
15,20
16,22
17,26
17,27
18,21
18,25
19,24
20,29
21,30
22,28
24,31
25,33
26,34
26,36
27,32
28,35
29,36
30,37
33,40
34,38
34,39
35,41
35,42
35,43
35,44
35,45
35,46
41,47
42,49
42,50
44,48

<end>
